# interactions involving Drude particles
pair_coeff    *  12* coul/long/cs
# Thole dipole-dipole damping if more than 1 Drude per molecule
pair_coeff    1    1 thole   1.208
pair_coeff    1    2 thole   1.321
pair_coeff    1    3 thole   1.321
pair_coeff    1    6 thole   1.549
pair_coeff    1    9 thole   1.417
pair_coeff    1   11 thole   2.305
pair_coeff    1   12 thole   1.208
pair_coeff    1   13 thole   1.321
pair_coeff    1   14 thole   1.321
pair_coeff    1   15 thole   1.549
pair_coeff    1   16 thole   1.417
pair_coeff    1   17 thole   2.305
pair_coeff    2    2 thole   1.445
pair_coeff    2    3 thole   1.445
pair_coeff    2    6 thole   1.694
pair_coeff    2    9 thole   1.550
pair_coeff    2   11 thole   2.522
pair_coeff    2   12 thole   1.321
pair_coeff    2   13 thole   1.445
pair_coeff    2   14 thole   1.445
pair_coeff    2   15 thole   1.694
pair_coeff    2   16 thole   1.550
pair_coeff    2   17 thole   2.522
pair_coeff    3    3 thole   1.445
pair_coeff    3    6 thole   1.694
pair_coeff    3    9 thole   1.550
pair_coeff    3   11 thole   2.522
pair_coeff    3   12 thole   1.321
pair_coeff    3   13 thole   1.445
pair_coeff    3   14 thole   1.445
pair_coeff    3   15 thole   1.694
pair_coeff    3   16 thole   1.550
pair_coeff    3   17 thole   2.522
pair_coeff    6    6 thole   1.985
pair_coeff    6    9 thole   1.816
pair_coeff    6   11 thole   2.955
pair_coeff    6   12 thole   1.549
pair_coeff    6   13 thole   1.694
pair_coeff    6   14 thole   1.694
pair_coeff    6   15 thole   1.985
pair_coeff    6   16 thole   1.816
pair_coeff    6   17 thole   2.955
pair_coeff    9    9 thole   1.662
pair_coeff    9   11 thole   2.704
pair_coeff    9   12 thole   1.417
pair_coeff    9   13 thole   1.550
pair_coeff    9   14 thole   1.550
pair_coeff    9   15 thole   1.816
pair_coeff    9   16 thole   1.662
pair_coeff    9   17 thole   2.704
pair_coeff   11   11 thole   4.400
pair_coeff   11   12 thole   2.305
pair_coeff   11   13 thole   2.522
pair_coeff   11   14 thole   2.522
pair_coeff   11   15 thole   2.955
pair_coeff   11   16 thole   2.704
pair_coeff   11   17 thole   4.400
pair_coeff   12   12 thole   1.208
pair_coeff   12   13 thole   1.321
pair_coeff   12   14 thole   1.321
pair_coeff   12   15 thole   1.549
pair_coeff   12   16 thole   1.417
pair_coeff   12   17 thole   2.305
pair_coeff   13   13 thole   1.445
pair_coeff   13   14 thole   1.445
pair_coeff   13   15 thole   1.694
pair_coeff   13   16 thole   1.550
pair_coeff   13   17 thole   2.522
pair_coeff   14   14 thole   1.445
pair_coeff   14   15 thole   1.694
pair_coeff   14   16 thole   1.550
pair_coeff   14   17 thole   2.522
pair_coeff   15   15 thole   1.985
pair_coeff   15   16 thole   1.816
pair_coeff   15   17 thole   2.955
pair_coeff   16   16 thole   1.662
pair_coeff   16   17 thole   2.704
pair_coeff   17   17 thole   4.400
