# interactions involving Drude particles
pair_coeff    *  14* coul/long/cs
# Thole dipole-dipole damping if more than 1 Drude per molecule
pair_coeff    1    1 thole   1.445
pair_coeff    1    2 thole   1.445
pair_coeff    1    5 thole   1.321
pair_coeff    1    6 thole   1.694
pair_coeff    1    9 thole   1.286
pair_coeff    1   10 thole   0.950
pair_coeff    1   11 thole   1.212
pair_coeff    1   12 thole   1.498
pair_coeff    1   13 thole   1.566
pair_coeff    1   14 thole   1.445
pair_coeff    1   15 thole   1.445
pair_coeff    1   16 thole   1.321
pair_coeff    1   17 thole   1.694
pair_coeff    1   18 thole   1.286
pair_coeff    1   19 thole   0.950
pair_coeff    1   20 thole   1.212
pair_coeff    1   21 thole   1.498
pair_coeff    1   22 thole   1.566
pair_coeff    2    2 thole   1.445
pair_coeff    2    5 thole   1.321
pair_coeff    2    6 thole   1.694
pair_coeff    2    9 thole   1.286
pair_coeff    2   10 thole   0.950
pair_coeff    2   11 thole   1.212
pair_coeff    2   12 thole   1.498
pair_coeff    2   13 thole   1.566
pair_coeff    2   14 thole   1.445
pair_coeff    2   15 thole   1.445
pair_coeff    2   16 thole   1.321
pair_coeff    2   17 thole   1.694
pair_coeff    2   18 thole   1.286
pair_coeff    2   19 thole   0.950
pair_coeff    2   20 thole   1.212
pair_coeff    2   21 thole   1.498
pair_coeff    2   22 thole   1.566
pair_coeff    5    5 thole   1.208
pair_coeff    5    6 thole   1.549
pair_coeff    5    9 thole   1.176
pair_coeff    5   10 thole   0.869
pair_coeff    5   11 thole   1.108
pair_coeff    5   12 thole   1.370
pair_coeff    5   13 thole   1.432
pair_coeff    5   14 thole   1.321
pair_coeff    5   15 thole   1.321
pair_coeff    5   16 thole   1.208
pair_coeff    5   17 thole   1.549
pair_coeff    5   18 thole   1.176
pair_coeff    5   19 thole   0.869
pair_coeff    5   20 thole   1.108
pair_coeff    5   21 thole   1.370
pair_coeff    5   22 thole   1.432
pair_coeff    6    6 thole   1.985
pair_coeff    6    9 thole   1.507
pair_coeff    6   10 thole   1.114
pair_coeff    6   11 thole   1.420
pair_coeff    6   12 thole   1.756
pair_coeff    6   13 thole   1.836
pair_coeff    6   14 thole   1.694
pair_coeff    6   15 thole   1.694
pair_coeff    6   16 thole   1.549
pair_coeff    6   17 thole   1.985
pair_coeff    6   18 thole   1.507
pair_coeff    6   19 thole   1.114
pair_coeff    6   20 thole   1.420
pair_coeff    6   21 thole   1.756
pair_coeff    6   22 thole   1.836
pair_coeff    9    9 thole   1.144
pair_coeff    9   10 thole   0.846
pair_coeff    9   11 thole   1.078
pair_coeff    9   12 thole   1.333
pair_coeff    9   13 thole   1.394
pair_coeff    9   14 thole   1.286
pair_coeff    9   15 thole   1.286
pair_coeff    9   16 thole   1.176
pair_coeff    9   17 thole   1.507
pair_coeff    9   18 thole   1.144
pair_coeff    9   19 thole   0.846
pair_coeff    9   20 thole   1.078
pair_coeff    9   21 thole   1.333
pair_coeff    9   22 thole   1.394
pair_coeff   10   10 thole   0.625
pair_coeff   10   11 thole   0.797
pair_coeff   10   12 thole   0.985
pair_coeff   10   13 thole   1.030
pair_coeff   10   14 thole   0.950
pair_coeff   10   15 thole   0.950
pair_coeff   10   16 thole   0.869
pair_coeff   10   17 thole   1.114
pair_coeff   10   18 thole   0.846
pair_coeff   10   19 thole   0.625
pair_coeff   10   20 thole   0.797
pair_coeff   10   21 thole   0.985
pair_coeff   10   22 thole   1.030
pair_coeff   11   11 thole   1.016
pair_coeff   11   12 thole   1.256
pair_coeff   11   13 thole   1.313
pair_coeff   11   14 thole   1.212
pair_coeff   11   15 thole   1.212
pair_coeff   11   16 thole   1.108
pair_coeff   11   17 thole   1.420
pair_coeff   11   18 thole   1.078
pair_coeff   11   19 thole   0.797
pair_coeff   11   20 thole   1.016
pair_coeff   11   21 thole   1.256
pair_coeff   11   22 thole   1.313
pair_coeff   12   12 thole   1.553
pair_coeff   12   13 thole   1.624
pair_coeff   12   14 thole   1.498
pair_coeff   12   15 thole   1.498
pair_coeff   12   16 thole   1.370
pair_coeff   12   17 thole   1.756
pair_coeff   12   18 thole   1.333
pair_coeff   12   19 thole   0.985
pair_coeff   12   20 thole   1.256
pair_coeff   12   21 thole   1.553
pair_coeff   12   22 thole   1.624
pair_coeff   13   13 thole   1.698
pair_coeff   13   14 thole   1.566
pair_coeff   13   15 thole   1.566
pair_coeff   13   16 thole   1.432
pair_coeff   13   17 thole   1.836
pair_coeff   13   18 thole   1.394
pair_coeff   13   19 thole   1.030
pair_coeff   13   20 thole   1.313
pair_coeff   13   21 thole   1.624
pair_coeff   13   22 thole   1.698
pair_coeff   14   14 thole   1.445
pair_coeff   14   15 thole   1.445
pair_coeff   14   16 thole   1.321
pair_coeff   14   17 thole   1.694
pair_coeff   14   18 thole   1.286
pair_coeff   14   19 thole   0.950
pair_coeff   14   20 thole   1.212
pair_coeff   14   21 thole   1.498
pair_coeff   14   22 thole   1.566
pair_coeff   15   15 thole   1.445
pair_coeff   15   16 thole   1.321
pair_coeff   15   17 thole   1.694
pair_coeff   15   18 thole   1.286
pair_coeff   15   19 thole   0.950
pair_coeff   15   20 thole   1.212
pair_coeff   15   21 thole   1.498
pair_coeff   15   22 thole   1.566
pair_coeff   16   16 thole   1.208
pair_coeff   16   17 thole   1.549
pair_coeff   16   18 thole   1.176
pair_coeff   16   19 thole   0.869
pair_coeff   16   20 thole   1.108
pair_coeff   16   21 thole   1.370
pair_coeff   16   22 thole   1.432
pair_coeff   17   17 thole   1.985
pair_coeff   17   18 thole   1.507
pair_coeff   17   19 thole   1.114
pair_coeff   17   20 thole   1.420
pair_coeff   17   21 thole   1.756
pair_coeff   17   22 thole   1.836
pair_coeff   18   18 thole   1.144
pair_coeff   18   19 thole   0.846
pair_coeff   18   20 thole   1.078
pair_coeff   18   21 thole   1.333
pair_coeff   18   22 thole   1.394
pair_coeff   19   19 thole   0.625
pair_coeff   19   20 thole   0.797
pair_coeff   19   21 thole   0.985
pair_coeff   19   22 thole   1.030
pair_coeff   20   20 thole   1.016
pair_coeff   20   21 thole   1.256
pair_coeff   20   22 thole   1.313
pair_coeff   21   21 thole   1.553
pair_coeff   21   22 thole   1.624
pair_coeff   22   22 thole   1.698
