pair_coeff    1    1 lj/cut/coul/long     0.086000     3.400000  # cc C2M cc C2M
pair_coeff    1    2 lj/cut/coul/long     0.086000     3.400000  # cc C2M cd C2M
pair_coeff    1    3 lj/cut/coul/long     0.035916     2.910500  # cc C2M H5 C2M
pair_coeff    1    4 lj/cut/coul/long     0.035916     2.955500  # cc C2M H4 C2M
pair_coeff    1    5 lj/cut/coul/long     0.120913     3.325000  # cc C2M na C2M
pair_coeff    1    6 lj/cut/coul/long     0.096997     3.400000  # cc C2M c3 C2M
pair_coeff    1    7 lj/cut/coul/long     0.036746     2.935500  # cc C2M H1 C2M
pair_coeff    1    8 lj/cut/coul/long     0.036746     3.025000  # cc C2M Hc C2M
pair_coeff    1    9 lj/cut/coul/long     0.073805     3.180000  # cc C2M OBT TF2 ~
pair_coeff    1   10 lj/cut/coul/long     0.039777     3.259000  # cc C2M F1 TF2 ~
pair_coeff    1   11 lj/cut/coul/long     0.053270     3.400000  # cc C2M CBT TF2 ~
pair_coeff    1   12 lj/cut/coul/long     0.080528     3.482000  # cc C2M SBT TF2 ~
pair_coeff    1   13 lj/cut/coul/long     0.066405     3.325000  # cc C2M NBT TF2 ~
pair_coeff    2    2 lj/cut/coul/long     0.086000     3.400000  # cd C2M cd C2M
pair_coeff    2    3 lj/cut/coul/long     0.035916     2.910500  # cd C2M H5 C2M
pair_coeff    2    4 lj/cut/coul/long     0.035916     2.955500  # cd C2M H4 C2M
pair_coeff    2    5 lj/cut/coul/long     0.120913     3.325000  # cd C2M na C2M
pair_coeff    2    6 lj/cut/coul/long     0.096997     3.400000  # cd C2M c3 C2M
pair_coeff    2    7 lj/cut/coul/long     0.036746     2.935500  # cd C2M H1 C2M
pair_coeff    2    8 lj/cut/coul/long     0.036746     3.025000  # cd C2M Hc C2M
pair_coeff    2    9 lj/cut/coul/long     0.073805     3.180000  # cd C2M OBT TF2 ~
pair_coeff    2   10 lj/cut/coul/long     0.039777     3.259000  # cd C2M F1 TF2 ~
pair_coeff    2   11 lj/cut/coul/long     0.053270     3.400000  # cd C2M CBT TF2 ~
pair_coeff    2   12 lj/cut/coul/long     0.080528     3.482000  # cd C2M SBT TF2 ~
pair_coeff    2   13 lj/cut/coul/long     0.066405     3.325000  # cd C2M NBT TF2 ~
pair_coeff    3    3 lj/cut/coul/long     0.014999     2.421000  # H5 C2M H5 C2M
pair_coeff    3    4 lj/cut/coul/long     0.014999     2.466000  # H5 C2M H4 C2M
pair_coeff    3    5 lj/cut/coul/long     0.050496     2.835500  # H5 C2M na C2M
pair_coeff    3    6 lj/cut/coul/long     0.040508     2.910500  # H5 C2M c3 C2M
pair_coeff    3    7 lj/cut/coul/long     0.015346     2.446000  # H5 C2M H1 C2M
pair_coeff    3    8 lj/cut/coul/long     0.015346     2.535500  # H5 C2M Hc C2M
pair_coeff    3    9 lj/cut/coul/long     0.030823     2.690500  # H5 C2M OBT TF2 ~
pair_coeff    3   10 lj/cut/coul/long     0.016612     2.769500  # H5 C2M F1 TF2 ~
pair_coeff    3   11 lj/cut/coul/long     0.022247     2.910500  # H5 C2M CBT TF2 ~
pair_coeff    3   12 lj/cut/coul/long     0.033630     2.992500  # H5 C2M SBT TF2 ~
pair_coeff    3   13 lj/cut/coul/long     0.027732     2.835500  # H5 C2M NBT TF2 ~
pair_coeff    4    4 lj/cut/coul/long     0.014999     2.511000  # H4 C2M H4 C2M
pair_coeff    4    5 lj/cut/coul/long     0.050496     2.880500  # H4 C2M na C2M
pair_coeff    4    6 lj/cut/coul/long     0.040508     2.955500  # H4 C2M c3 C2M
pair_coeff    4    7 lj/cut/coul/long     0.015346     2.491000  # H4 C2M H1 C2M
pair_coeff    4    8 lj/cut/coul/long     0.015346     2.580500  # H4 C2M Hc C2M
pair_coeff    4    9 lj/cut/coul/long     0.030823     2.735500  # H4 C2M OBT TF2 ~
pair_coeff    4   10 lj/cut/coul/long     0.016612     2.814500  # H4 C2M F1 TF2 ~
pair_coeff    4   11 lj/cut/coul/long     0.022247     2.955500  # H4 C2M CBT TF2 ~
pair_coeff    4   12 lj/cut/coul/long     0.033630     3.037500  # H4 C2M SBT TF2 ~
pair_coeff    4   13 lj/cut/coul/long     0.027732     2.880500  # H4 C2M NBT TF2 ~
pair_coeff    5    5 lj/cut/coul/long     0.169999     3.250000  # na C2M na C2M
pair_coeff    5    6 lj/cut/coul/long     0.136374     3.325000  # na C2M c3 C2M
pair_coeff    5    7 lj/cut/coul/long     0.051664     2.860500  # na C2M H1 C2M
pair_coeff    5    8 lj/cut/coul/long     0.051664     2.950000  # na C2M Hc C2M
pair_coeff    5    9 lj/cut/coul/long     0.103767     3.105000  # na C2M OBT TF2 ~
pair_coeff    5   10 lj/cut/coul/long     0.055926     3.184000  # na C2M F1 TF2 ~
pair_coeff    5   11 lj/cut/coul/long     0.074896     3.325000  # na C2M CBT TF2 ~
pair_coeff    5   12 lj/cut/coul/long     0.113219     3.407000  # na C2M SBT TF2 ~
pair_coeff    5   13 lj/cut/coul/long     0.093362     3.250000  # na C2M NBT TF2 ~
pair_coeff    6    6 lj/cut/coul/long     0.109400     3.400000  # c3 C2M c3 C2M
pair_coeff    6    7 lj/cut/coul/long     0.041445     2.935500  # c3 C2M H1 C2M
pair_coeff    6    8 lj/cut/coul/long     0.041445     3.025000  # c3 C2M Hc C2M
pair_coeff    6    9 lj/cut/coul/long     0.083242     3.180000  # c3 C2M OBT TF2 ~
pair_coeff    6   10 lj/cut/coul/long     0.044864     3.259000  # c3 C2M F1 TF2 ~
pair_coeff    6   11 lj/cut/coul/long     0.060081     3.400000  # c3 C2M CBT TF2 ~
pair_coeff    6   12 lj/cut/coul/long     0.090824     3.482000  # c3 C2M SBT TF2 ~
pair_coeff    6   13 lj/cut/coul/long     0.074896     3.325000  # c3 C2M NBT TF2 ~
pair_coeff    7    7 lj/cut/coul/long     0.015701     2.471000  # H1 C2M H1 C2M
pair_coeff    7    8 lj/cut/coul/long     0.015701     2.560500  # H1 C2M Hc C2M
pair_coeff    7    9 lj/cut/coul/long     0.031535     2.715500  # H1 C2M OBT TF2 ~
pair_coeff    7   10 lj/cut/coul/long     0.016996     2.794500  # H1 C2M F1 TF2 ~
pair_coeff    7   11 lj/cut/coul/long     0.022761     2.935500  # H1 C2M CBT TF2 ~
pair_coeff    7   12 lj/cut/coul/long     0.034408     3.017500  # H1 C2M SBT TF2 ~
pair_coeff    7   13 lj/cut/coul/long     0.028373     2.860500  # H1 C2M NBT TF2 ~
pair_coeff    8    8 lj/cut/coul/long     0.015701     2.650000  # Hc C2M Hc C2M
pair_coeff    8    9 lj/cut/coul/long     0.031535     2.805000  # Hc C2M OBT TF2 ~
pair_coeff    8   10 lj/cut/coul/long     0.016996     2.884000  # Hc C2M F1 TF2 ~
pair_coeff    8   11 lj/cut/coul/long     0.022761     3.025000  # Hc C2M CBT TF2 ~
pair_coeff    8   12 lj/cut/coul/long     0.034408     3.107000  # Hc C2M SBT TF2 ~
pair_coeff    8   13 lj/cut/coul/long     0.028373     2.950000  # Hc C2M NBT TF2 ~
pair_coeff    9    9 lj/cut/coul/long     0.210000     2.960000  # OBT TF2 OBT TF2
pair_coeff    9   10 lj/cut/coul/long     0.113180     3.039000  # OBT TF2 F1 TF2
pair_coeff    9   11 lj/cut/coul/long     0.151571     3.180000  # OBT TF2 CBT TF2
pair_coeff    9   12 lj/cut/coul/long     0.229129     3.262000  # OBT TF2 SBT TF2
pair_coeff    9   13 lj/cut/coul/long     0.188944     3.105000  # OBT TF2 NBT TF2
pair_coeff   10   10 lj/cut/coul/long     0.060999     3.118000  # F1 TF2 F1 TF2
pair_coeff   10   11 lj/cut/coul/long     0.081690     3.259000  # F1 TF2 CBT TF2
pair_coeff   10   12 lj/cut/coul/long     0.123490     3.341000  # F1 TF2 SBT TF2
pair_coeff   10   13 lj/cut/coul/long     0.101832     3.184000  # F1 TF2 NBT TF2
pair_coeff   11   11 lj/cut/coul/long     0.109400     3.400000  # CBT TF2 CBT TF2
pair_coeff   11   12 lj/cut/coul/long     0.165378     3.482000  # CBT TF2 SBT TF2
pair_coeff   11   13 lj/cut/coul/long     0.136374     3.325000  # CBT TF2 NBT TF2
pair_coeff   12   12 lj/cut/coul/long     0.250000     3.564000  # SBT TF2 SBT TF2
pair_coeff   12   13 lj/cut/coul/long     0.206155     3.407000  # SBT TF2 NBT TF2
pair_coeff   13   13 lj/cut/coul/long     0.169999     3.250000  # NBT TF2 NBT TF2
