pair_coeff    1    1 lj/cut/coul/long     0.086000     3.400000  # cc C2M cc C2M
pair_coeff    1    2 lj/cut/coul/long     0.086000     3.400000  # cc C2M cd C2M
pair_coeff    1    3 lj/cut/coul/long     0.035916     2.910500  # cc C2M H5 C2M
pair_coeff    1    4 lj/cut/coul/long     0.035916     2.955500  # cc C2M H4 C2M
pair_coeff    1    5 lj/cut/coul/long     0.120913     3.325000  # cc C2M na C2M
pair_coeff    1    6 lj/cut/coul/long     0.096997     3.400000  # cc C2M c3 C2M
pair_coeff    1    7 lj/cut/coul/long     0.036746     2.935500  # cc C2M H1 C2M
pair_coeff    1    8 lj/cut/coul/long     0.036746     3.025000  # cc C2M Hc C2M
pair_coeff    1    9 lj/cut/coul/long     0.045246     3.490500  # cc C2M B BF4 ~
pair_coeff    1   10 lj/cut/coul/long     0.036256     3.259000  # cc C2M FB BF4 ~
pair_coeff    2    2 lj/cut/coul/long     0.086000     3.400000  # cd C2M cd C2M
pair_coeff    2    3 lj/cut/coul/long     0.035916     2.910500  # cd C2M H5 C2M
pair_coeff    2    4 lj/cut/coul/long     0.035916     2.955500  # cd C2M H4 C2M
pair_coeff    2    5 lj/cut/coul/long     0.120913     3.325000  # cd C2M na C2M
pair_coeff    2    6 lj/cut/coul/long     0.096997     3.400000  # cd C2M c3 C2M
pair_coeff    2    7 lj/cut/coul/long     0.036746     2.935500  # cd C2M H1 C2M
pair_coeff    2    8 lj/cut/coul/long     0.036746     3.025000  # cd C2M Hc C2M
pair_coeff    2    9 lj/cut/coul/long     0.045246     3.490500  # cd C2M B BF4 ~
pair_coeff    2   10 lj/cut/coul/long     0.036256     3.259000  # cd C2M FB BF4 ~
pair_coeff    3    3 lj/cut/coul/long     0.014999     2.421000  # H5 C2M H5 C2M
pair_coeff    3    4 lj/cut/coul/long     0.014999     2.466000  # H5 C2M H4 C2M
pair_coeff    3    5 lj/cut/coul/long     0.050496     2.835500  # H5 C2M na C2M
pair_coeff    3    6 lj/cut/coul/long     0.040508     2.910500  # H5 C2M c3 C2M
pair_coeff    3    7 lj/cut/coul/long     0.015346     2.446000  # H5 C2M H1 C2M
pair_coeff    3    8 lj/cut/coul/long     0.015346     2.535500  # H5 C2M Hc C2M
pair_coeff    3    9 lj/cut/coul/long     0.018896     3.001000  # H5 C2M B BF4 ~
pair_coeff    3   10 lj/cut/coul/long     0.015141     2.769500  # H5 C2M FB BF4 ~
pair_coeff    4    4 lj/cut/coul/long     0.014999     2.511000  # H4 C2M H4 C2M
pair_coeff    4    5 lj/cut/coul/long     0.050496     2.880500  # H4 C2M na C2M
pair_coeff    4    6 lj/cut/coul/long     0.040508     2.955500  # H4 C2M c3 C2M
pair_coeff    4    7 lj/cut/coul/long     0.015346     2.491000  # H4 C2M H1 C2M
pair_coeff    4    8 lj/cut/coul/long     0.015346     2.580500  # H4 C2M Hc C2M
pair_coeff    4    9 lj/cut/coul/long     0.018896     3.046000  # H4 C2M B BF4 ~
pair_coeff    4   10 lj/cut/coul/long     0.015141     2.814500  # H4 C2M FB BF4 ~
pair_coeff    5    5 lj/cut/coul/long     0.169999     3.250000  # na C2M na C2M
pair_coeff    5    6 lj/cut/coul/long     0.136374     3.325000  # na C2M c3 C2M
pair_coeff    5    7 lj/cut/coul/long     0.051664     2.860500  # na C2M H1 C2M
pair_coeff    5    8 lj/cut/coul/long     0.051664     2.950000  # na C2M Hc C2M
pair_coeff    5    9 lj/cut/coul/long     0.063614     3.415500  # na C2M B BF4 ~
pair_coeff    5   10 lj/cut/coul/long     0.050974     3.184000  # na C2M FB BF4 ~
pair_coeff    6    6 lj/cut/coul/long     0.109400     3.400000  # c3 C2M c3 C2M
pair_coeff    6    7 lj/cut/coul/long     0.041445     2.935500  # c3 C2M H1 C2M
pair_coeff    6    8 lj/cut/coul/long     0.041445     3.025000  # c3 C2M Hc C2M
pair_coeff    6    9 lj/cut/coul/long     0.051031     3.490500  # c3 C2M B BF4 ~
pair_coeff    6   10 lj/cut/coul/long     0.040892     3.259000  # c3 C2M FB BF4 ~
pair_coeff    7    7 lj/cut/coul/long     0.015701     2.471000  # H1 C2M H1 C2M
pair_coeff    7    8 lj/cut/coul/long     0.015701     2.560500  # H1 C2M Hc C2M
pair_coeff    7    9 lj/cut/coul/long     0.019333     3.026000  # H1 C2M B BF4 ~
pair_coeff    7   10 lj/cut/coul/long     0.015491     2.794500  # H1 C2M FB BF4 ~
pair_coeff    8    8 lj/cut/coul/long     0.015701     2.650000  # Hc C2M Hc C2M
pair_coeff    8    9 lj/cut/coul/long     0.019333     3.115500  # Hc C2M B BF4 ~
pair_coeff    8   10 lj/cut/coul/long     0.015491     2.884000  # Hc C2M FB BF4 ~
pair_coeff    9    9 lj/cut/coul/long     0.095000     3.581000  # B BF4 B BF4
pair_coeff    9   10 lj/cut/coul/long     0.076125     3.349500  # B BF4 FB BF4
pair_coeff   10   10 lj/cut/coul/long     0.060999     3.118000  # FB BF4 FB BF4
