# interactions involving Drude particles
pair_coeff    *  12* coul/long/cs
# Thole dipole-dipole damping if more than 1 Drude per molecule
pair_coeff    1    1 thole   1.208
pair_coeff    1    2 thole   1.417
pair_coeff    1    5 thole   1.417
pair_coeff    1    7 thole   1.176
pair_coeff    1    8 thole   0.869
pair_coeff    1    9 thole   1.108
pair_coeff    1   10 thole   1.370
pair_coeff    1   11 thole   1.432
pair_coeff    1   12 thole   1.208
pair_coeff    1   13 thole   1.417
pair_coeff    1   14 thole   1.417
pair_coeff    1   15 thole   1.176
pair_coeff    1   16 thole   0.869
pair_coeff    1   17 thole   1.108
pair_coeff    1   18 thole   1.370
pair_coeff    1   19 thole   1.432
pair_coeff    2    2 thole   1.662
pair_coeff    2    5 thole   1.662
pair_coeff    2    7 thole   1.379
pair_coeff    2    8 thole   1.019
pair_coeff    2    9 thole   1.299
pair_coeff    2   10 thole   1.607
pair_coeff    2   11 thole   1.680
pair_coeff    2   12 thole   1.417
pair_coeff    2   13 thole   1.662
pair_coeff    2   14 thole   1.662
pair_coeff    2   15 thole   1.379
pair_coeff    2   16 thole   1.019
pair_coeff    2   17 thole   1.299
pair_coeff    2   18 thole   1.607
pair_coeff    2   19 thole   1.680
pair_coeff    5    5 thole   1.662
pair_coeff    5    7 thole   1.379
pair_coeff    5    8 thole   1.019
pair_coeff    5    9 thole   1.299
pair_coeff    5   10 thole   1.607
pair_coeff    5   11 thole   1.680
pair_coeff    5   12 thole   1.417
pair_coeff    5   13 thole   1.662
pair_coeff    5   14 thole   1.662
pair_coeff    5   15 thole   1.379
pair_coeff    5   16 thole   1.019
pair_coeff    5   17 thole   1.299
pair_coeff    5   18 thole   1.607
pair_coeff    5   19 thole   1.680
pair_coeff    7    7 thole   1.144
pair_coeff    7    8 thole   0.846
pair_coeff    7    9 thole   1.078
pair_coeff    7   10 thole   1.333
pair_coeff    7   11 thole   1.394
pair_coeff    7   12 thole   1.176
pair_coeff    7   13 thole   1.379
pair_coeff    7   14 thole   1.379
pair_coeff    7   15 thole   1.144
pair_coeff    7   16 thole   0.846
pair_coeff    7   17 thole   1.078
pair_coeff    7   18 thole   1.333
pair_coeff    7   19 thole   1.394
pair_coeff    8    8 thole   0.625
pair_coeff    8    9 thole   0.797
pair_coeff    8   10 thole   0.985
pair_coeff    8   11 thole   1.030
pair_coeff    8   12 thole   0.869
pair_coeff    8   13 thole   1.019
pair_coeff    8   14 thole   1.019
pair_coeff    8   15 thole   0.846
pair_coeff    8   16 thole   0.625
pair_coeff    8   17 thole   0.797
pair_coeff    8   18 thole   0.985
pair_coeff    8   19 thole   1.030
pair_coeff    9    9 thole   1.016
pair_coeff    9   10 thole   1.256
pair_coeff    9   11 thole   1.313
pair_coeff    9   12 thole   1.108
pair_coeff    9   13 thole   1.299
pair_coeff    9   14 thole   1.299
pair_coeff    9   15 thole   1.078
pair_coeff    9   16 thole   0.797
pair_coeff    9   17 thole   1.016
pair_coeff    9   18 thole   1.256
pair_coeff    9   19 thole   1.313
pair_coeff   10   10 thole   1.553
pair_coeff   10   11 thole   1.624
pair_coeff   10   12 thole   1.370
pair_coeff   10   13 thole   1.607
pair_coeff   10   14 thole   1.607
pair_coeff   10   15 thole   1.333
pair_coeff   10   16 thole   0.985
pair_coeff   10   17 thole   1.256
pair_coeff   10   18 thole   1.553
pair_coeff   10   19 thole   1.624
pair_coeff   11   11 thole   1.698
pair_coeff   11   12 thole   1.432
pair_coeff   11   13 thole   1.680
pair_coeff   11   14 thole   1.680
pair_coeff   11   15 thole   1.394
pair_coeff   11   16 thole   1.030
pair_coeff   11   17 thole   1.313
pair_coeff   11   18 thole   1.624
pair_coeff   11   19 thole   1.698
pair_coeff   12   12 thole   1.208
pair_coeff   12   13 thole   1.417
pair_coeff   12   14 thole   1.417
pair_coeff   12   15 thole   1.176
pair_coeff   12   16 thole   0.869
pair_coeff   12   17 thole   1.108
pair_coeff   12   18 thole   1.370
pair_coeff   12   19 thole   1.432
pair_coeff   13   13 thole   1.662
pair_coeff   13   14 thole   1.662
pair_coeff   13   15 thole   1.379
pair_coeff   13   16 thole   1.019
pair_coeff   13   17 thole   1.299
pair_coeff   13   18 thole   1.607
pair_coeff   13   19 thole   1.680
pair_coeff   14   14 thole   1.662
pair_coeff   14   15 thole   1.379
pair_coeff   14   16 thole   1.019
pair_coeff   14   17 thole   1.299
pair_coeff   14   18 thole   1.607
pair_coeff   14   19 thole   1.680
pair_coeff   15   15 thole   1.144
pair_coeff   15   16 thole   0.846
pair_coeff   15   17 thole   1.078
pair_coeff   15   18 thole   1.333
pair_coeff   15   19 thole   1.394
pair_coeff   16   16 thole   0.625
pair_coeff   16   17 thole   0.797
pair_coeff   16   18 thole   0.985
pair_coeff   16   19 thole   1.030
pair_coeff   17   17 thole   1.016
pair_coeff   17   18 thole   1.256
pair_coeff   17   19 thole   1.313
pair_coeff   18   18 thole   1.553
pair_coeff   18   19 thole   1.624
pair_coeff   19   19 thole   1.698
