pair_coeff    1    1 lj/cut/coul/long     0.169999     3.250000  # n4 c4c n4 c4c
pair_coeff    1    2 lj/cut/coul/long     0.136374     3.325000  # n4 c4c c3 c4c
pair_coeff    1    3 lj/cut/coul/long     0.051664     2.605000  # n4 c4c Hx c4c
pair_coeff    1    4 lj/cut/coul/long     0.051664     2.950000  # n4 c4c Hc c4c
pair_coeff    1    5 lj/cut/coul/long     0.094230     3.325000  # n4 c4c c3a c4c ~
pair_coeff    1    6 lj/cut/coul/long     0.035698     2.950000  # n4 c4c Hca c4c ~
pair_coeff    1    7 lj/cut/coul/long     0.094743     3.105000  # n4 c4c OBT TF2 ~
pair_coeff    1    8 lj/cut/coul/long     0.051062     3.184000  # n4 c4c F1 TF2 ~
pair_coeff    1    9 lj/cut/coul/long     0.068382     3.325000  # n4 c4c CBT TF2 ~
pair_coeff    1   10 lj/cut/coul/long     0.103373     3.407000  # n4 c4c SBT TF2 ~
pair_coeff    1   11 lj/cut/coul/long     0.085243     3.250000  # n4 c4c NBT TF2 ~
pair_coeff    2    2 lj/cut/coul/long     0.109400     3.400000  # c3 c4c c3 c4c
pair_coeff    2    3 lj/cut/coul/long     0.041445     2.680000  # c3 c4c Hx c4c
pair_coeff    2    4 lj/cut/coul/long     0.041445     3.025000  # c3 c4c Hc c4c
pair_coeff    2    5 lj/cut/coul/long     0.075591     3.400000  # c3 c4c c3a c4c ~
pair_coeff    2    6 lj/cut/coul/long     0.028637     3.025000  # c3 c4c Hca c4c ~
pair_coeff    2    7 lj/cut/coul/long     0.076003     3.180000  # c3 c4c OBT TF2 ~
pair_coeff    2    8 lj/cut/coul/long     0.040962     3.259000  # c3 c4c F1 TF2 ~
pair_coeff    2    9 lj/cut/coul/long     0.054857     3.400000  # c3 c4c CBT TF2 ~
pair_coeff    2   10 lj/cut/coul/long     0.082926     3.482000  # c3 c4c SBT TF2 ~
pair_coeff    2   11 lj/cut/coul/long     0.068382     3.325000  # c3 c4c NBT TF2 ~
pair_coeff    3    3 lj/cut/coul/long     0.015701     1.960000  # Hx c4c Hx c4c
pair_coeff    3    4 lj/cut/coul/long     0.015701     2.305000  # Hx c4c Hc c4c
pair_coeff    3    5 lj/cut/coul/long     0.028637     2.680000  # Hx c4c c3a c4c ~
pair_coeff    3    6 lj/cut/coul/long     0.010849     2.305000  # Hx c4c Hca c4c ~
pair_coeff    3    7 lj/cut/coul/long     0.028793     2.460000  # Hx c4c OBT TF2 ~
pair_coeff    3    8 lj/cut/coul/long     0.015518     2.539000  # Hx c4c F1 TF2 ~
pair_coeff    3    9 lj/cut/coul/long     0.020782     2.680000  # Hx c4c CBT TF2 ~
pair_coeff    3   10 lj/cut/coul/long     0.031416     2.762000  # Hx c4c SBT TF2 ~
pair_coeff    3   11 lj/cut/coul/long     0.025906     2.605000  # Hx c4c NBT TF2 ~
pair_coeff    4    4 lj/cut/coul/long     0.015701     2.650000  # Hc c4c Hc c4c
pair_coeff    4    5 lj/cut/coul/long     0.028637     3.025000  # Hc c4c c3a c4c ~
pair_coeff    4    6 lj/cut/coul/long     0.010849     2.650000  # Hc c4c Hca c4c ~
pair_coeff    4    7 lj/cut/coul/long     0.028793     2.805000  # Hc c4c OBT TF2 ~
pair_coeff    4    8 lj/cut/coul/long     0.015518     2.884000  # Hc c4c F1 TF2 ~
pair_coeff    4    9 lj/cut/coul/long     0.020782     3.025000  # Hc c4c CBT TF2 ~
pair_coeff    4   10 lj/cut/coul/long     0.031416     3.107000  # Hc c4c SBT TF2 ~
pair_coeff    4   11 lj/cut/coul/long     0.025906     2.950000  # Hc c4c NBT TF2 ~
pair_coeff    5    5 lj/cut/coul/long     0.109400     3.400000  # c3a c4c c3a c4c
pair_coeff    5    6 lj/cut/coul/long     0.041445     3.025000  # c3a c4c Hca c4c
pair_coeff    5    7 lj/cut/coul/long     0.104959     3.180000  # c3a c4c OBT TF2 ~
pair_coeff    5    8 lj/cut/coul/long     0.056568     3.259000  # c3a c4c F1 TF2 ~
pair_coeff    5    9 lj/cut/coul/long     0.075756     3.400000  # c3a c4c CBT TF2 ~
pair_coeff    5   10 lj/cut/coul/long     0.114520     3.482000  # c3a c4c SBT TF2 ~
pair_coeff    5   11 lj/cut/coul/long     0.094435     3.325000  # c3a c4c NBT TF2 ~
pair_coeff    6    6 lj/cut/coul/long     0.015701     2.650000  # Hca c4c Hca c4c
pair_coeff    6    7 lj/cut/coul/long     0.039763     2.805000  # Hca c4c OBT TF2 ~
pair_coeff    6    8 lj/cut/coul/long     0.021430     2.884000  # Hca c4c F1 TF2 ~
pair_coeff    6    9 lj/cut/coul/long     0.028699     3.025000  # Hca c4c CBT TF2 ~
pair_coeff    6   10 lj/cut/coul/long     0.043385     3.107000  # Hca c4c SBT TF2 ~
pair_coeff    6   11 lj/cut/coul/long     0.035776     2.950000  # Hca c4c NBT TF2 ~
pair_coeff    7    7 lj/cut/coul/long     0.210000     2.960000  # OBT TF2 OBT TF2
pair_coeff    7    8 lj/cut/coul/long     0.113180     3.039000  # OBT TF2 F1 TF2
pair_coeff    7    9 lj/cut/coul/long     0.151571     3.180000  # OBT TF2 CBT TF2
pair_coeff    7   10 lj/cut/coul/long     0.229129     3.262000  # OBT TF2 SBT TF2
pair_coeff    7   11 lj/cut/coul/long     0.188944     3.105000  # OBT TF2 NBT TF2
pair_coeff    8    8 lj/cut/coul/long     0.060999     3.118000  # F1 TF2 F1 TF2
pair_coeff    8    9 lj/cut/coul/long     0.081690     3.259000  # F1 TF2 CBT TF2
pair_coeff    8   10 lj/cut/coul/long     0.123490     3.341000  # F1 TF2 SBT TF2
pair_coeff    8   11 lj/cut/coul/long     0.101832     3.184000  # F1 TF2 NBT TF2
pair_coeff    9    9 lj/cut/coul/long     0.109400     3.400000  # CBT TF2 CBT TF2
pair_coeff    9   10 lj/cut/coul/long     0.165378     3.482000  # CBT TF2 SBT TF2
pair_coeff    9   11 lj/cut/coul/long     0.136374     3.325000  # CBT TF2 NBT TF2
pair_coeff   10   10 lj/cut/coul/long     0.250000     3.564000  # SBT TF2 SBT TF2
pair_coeff   10   11 lj/cut/coul/long     0.206155     3.407000  # SBT TF2 NBT TF2
pair_coeff   11   11 lj/cut/coul/long     0.169999     3.250000  # NBT TF2 NBT TF2
