pair_coeff    1    1 lj/cut/coul/long     0.169999     3.250000  # na bmi na bmi
pair_coeff    1    2 lj/cut/coul/long     0.120913     3.325000  # na bmi cc bmi
pair_coeff    1    3 lj/cut/coul/long     0.120913     3.325000  # na bmi cd bmi
pair_coeff    1    4 lj/cut/coul/long     0.136374     3.325000  # na bmi c3 bmi
pair_coeff    1    5 lj/cut/coul/long     0.050496     2.835500  # na bmi H5 bmi
pair_coeff    1    6 lj/cut/coul/long     0.050496     2.880500  # na bmi H4 bmi
pair_coeff    1    7 lj/cut/coul/long     0.051664     2.860500  # na bmi H1 bmi
pair_coeff    1    8 lj/cut/coul/long     0.051664     2.950000  # na bmi Hc bmi
pair_coeff    1    9 lj/cut/coul/long     0.106518     3.325000  # na bmi c3a bmi ~
pair_coeff    1   10 lj/cut/coul/long     0.040353     2.950000  # na bmi Hca bmi ~
pair_coeff    1   11 lj/cut/coul/long     0.081364     3.496000  # na bmi P PF6 ~
pair_coeff    1   12 lj/cut/coul/long     0.044933     3.184000  # na bmi FP PF6 ~
pair_coeff    2    2 lj/cut/coul/long     0.086000     3.400000  # cc bmi cc bmi
pair_coeff    2    3 lj/cut/coul/long     0.086000     3.400000  # cc bmi cd bmi
pair_coeff    2    4 lj/cut/coul/long     0.096997     3.400000  # cc bmi c3 bmi
pair_coeff    2    5 lj/cut/coul/long     0.035916     2.910500  # cc bmi H5 bmi
pair_coeff    2    6 lj/cut/coul/long     0.035916     2.955500  # cc bmi H4 bmi
pair_coeff    2    7 lj/cut/coul/long     0.036746     2.935500  # cc bmi H1 bmi
pair_coeff    2    8 lj/cut/coul/long     0.036746     3.025000  # cc bmi Hc bmi
pair_coeff    2    9 lj/cut/coul/long     0.075761     3.400000  # cc bmi c3a bmi ~
pair_coeff    2   10 lj/cut/coul/long     0.028701     3.025000  # cc bmi Hca bmi ~
pair_coeff    2   11 lj/cut/coul/long     0.057871     3.571000  # cc bmi P PF6 ~
pair_coeff    2   12 lj/cut/coul/long     0.031959     3.259000  # cc bmi FP PF6 ~
pair_coeff    3    3 lj/cut/coul/long     0.086000     3.400000  # cd bmi cd bmi
pair_coeff    3    4 lj/cut/coul/long     0.096997     3.400000  # cd bmi c3 bmi
pair_coeff    3    5 lj/cut/coul/long     0.035916     2.910500  # cd bmi H5 bmi
pair_coeff    3    6 lj/cut/coul/long     0.035916     2.955500  # cd bmi H4 bmi
pair_coeff    3    7 lj/cut/coul/long     0.036746     2.935500  # cd bmi H1 bmi
pair_coeff    3    8 lj/cut/coul/long     0.036746     3.025000  # cd bmi Hc bmi
pair_coeff    3    9 lj/cut/coul/long     0.075761     3.400000  # cd bmi c3a bmi ~
pair_coeff    3   10 lj/cut/coul/long     0.028701     3.025000  # cd bmi Hca bmi ~
pair_coeff    3   11 lj/cut/coul/long     0.057871     3.571000  # cd bmi P PF6 ~
pair_coeff    3   12 lj/cut/coul/long     0.031959     3.259000  # cd bmi FP PF6 ~
pair_coeff    4    4 lj/cut/coul/long     0.109400     3.400000  # c3 bmi c3 bmi
pair_coeff    4    5 lj/cut/coul/long     0.040508     2.910500  # c3 bmi H5 bmi
pair_coeff    4    6 lj/cut/coul/long     0.040508     2.955500  # c3 bmi H4 bmi
pair_coeff    4    7 lj/cut/coul/long     0.041445     2.935500  # c3 bmi H1 bmi
pair_coeff    4    8 lj/cut/coul/long     0.041445     3.025000  # c3 bmi Hc bmi
pair_coeff    4    9 lj/cut/coul/long     0.085449     3.400000  # c3 bmi c3a bmi ~
pair_coeff    4   10 lj/cut/coul/long     0.032371     3.025000  # c3 bmi Hca bmi ~
pair_coeff    4   11 lj/cut/coul/long     0.065270     3.571000  # c3 bmi P PF6 ~
pair_coeff    4   12 lj/cut/coul/long     0.036045     3.259000  # c3 bmi FP PF6 ~
pair_coeff    5    5 lj/cut/coul/long     0.014999     2.421000  # H5 bmi H5 bmi
pair_coeff    5    6 lj/cut/coul/long     0.014999     2.466000  # H5 bmi H4 bmi
pair_coeff    5    7 lj/cut/coul/long     0.015346     2.446000  # H5 bmi H1 bmi
pair_coeff    5    8 lj/cut/coul/long     0.015346     2.535500  # H5 bmi Hc bmi
pair_coeff    5    9 lj/cut/coul/long     0.031640     2.910500  # H5 bmi c3a bmi ~
pair_coeff    5   10 lj/cut/coul/long     0.011986     2.535500  # H5 bmi Hca bmi ~
pair_coeff    5   11 lj/cut/coul/long     0.024168     3.081500  # H5 bmi P PF6 ~
pair_coeff    5   12 lj/cut/coul/long     0.013347     2.769500  # H5 bmi FP PF6 ~
pair_coeff    6    6 lj/cut/coul/long     0.014999     2.511000  # H4 bmi H4 bmi
pair_coeff    6    7 lj/cut/coul/long     0.015346     2.491000  # H4 bmi H1 bmi
pair_coeff    6    8 lj/cut/coul/long     0.015346     2.580500  # H4 bmi Hc bmi
pair_coeff    6    9 lj/cut/coul/long     0.031640     2.955500  # H4 bmi c3a bmi ~
pair_coeff    6   10 lj/cut/coul/long     0.011986     2.580500  # H4 bmi Hca bmi ~
pair_coeff    6   11 lj/cut/coul/long     0.024168     3.126500  # H4 bmi P PF6 ~
pair_coeff    6   12 lj/cut/coul/long     0.013347     2.814500  # H4 bmi FP PF6 ~
pair_coeff    7    7 lj/cut/coul/long     0.015701     2.471000  # H1 bmi H1 bmi
pair_coeff    7    8 lj/cut/coul/long     0.015701     2.560500  # H1 bmi Hc bmi
pair_coeff    7    9 lj/cut/coul/long     0.032371     2.935500  # H1 bmi c3a bmi ~
pair_coeff    7   10 lj/cut/coul/long     0.012263     2.560500  # H1 bmi Hca bmi ~
pair_coeff    7   11 lj/cut/coul/long     0.024727     3.106500  # H1 bmi P PF6 ~
pair_coeff    7   12 lj/cut/coul/long     0.013655     2.794500  # H1 bmi FP PF6 ~
pair_coeff    8    8 lj/cut/coul/long     0.015701     2.650000  # Hc bmi Hc bmi
pair_coeff    8    9 lj/cut/coul/long     0.032371     3.025000  # Hc bmi c3a bmi ~
pair_coeff    8   10 lj/cut/coul/long     0.012263     2.650000  # Hc bmi Hca bmi ~
pair_coeff    8   11 lj/cut/coul/long     0.024727     3.196000  # Hc bmi P PF6 ~
pair_coeff    8   12 lj/cut/coul/long     0.013655     2.884000  # Hc bmi FP PF6 ~
pair_coeff    9    9 lj/cut/coul/long     0.109400     3.400000  # c3a bmi c3a bmi
pair_coeff    9   10 lj/cut/coul/long     0.041445     3.025000  # c3a bmi Hca bmi
pair_coeff    9   11 lj/cut/coul/long     0.076404     3.571000  # c3a bmi P PF6 ~
pair_coeff    9   12 lj/cut/coul/long     0.042194     3.259000  # c3a bmi FP PF6 ~
pair_coeff   10   10 lj/cut/coul/long     0.015701     2.650000  # Hca bmi Hca bmi
pair_coeff   10   11 lj/cut/coul/long     0.028945     3.196000  # Hca bmi P PF6 ~
pair_coeff   10   12 lj/cut/coul/long     0.015985     2.884000  # Hca bmi FP PF6 ~
pair_coeff   11   11 lj/cut/coul/long     0.200012     3.742000  # P PF6 P PF6
pair_coeff   11   12 lj/cut/coul/long     0.110456     3.430000  # P PF6 FP PF6
pair_coeff   12   12 lj/cut/coul/long     0.060999     3.118000  # FP PF6 FP PF6
