# interactions involving Drude particles
pair_coeff    *  13* coul/long/cs
# Thole dipole-dipole damping if more than 1 Drude per molecule
pair_coeff    1    1 thole   1.208
pair_coeff    1    2 thole   1.321
pair_coeff    1    3 thole   1.321
pair_coeff    1    4 thole   1.549
pair_coeff    1    9 thole   1.417
pair_coeff    1   11 thole   1.222
pair_coeff    1   12 thole   0.869
pair_coeff    1   13 thole   1.208
pair_coeff    1   14 thole   1.321
pair_coeff    1   15 thole   1.321
pair_coeff    1   16 thole   1.549
pair_coeff    1   17 thole   1.417
pair_coeff    1   18 thole   1.222
pair_coeff    1   19 thole   0.869
pair_coeff    2    2 thole   1.445
pair_coeff    2    3 thole   1.445
pair_coeff    2    4 thole   1.694
pair_coeff    2    9 thole   1.550
pair_coeff    2   11 thole   1.337
pair_coeff    2   12 thole   0.950
pair_coeff    2   13 thole   1.321
pair_coeff    2   14 thole   1.445
pair_coeff    2   15 thole   1.445
pair_coeff    2   16 thole   1.694
pair_coeff    2   17 thole   1.550
pair_coeff    2   18 thole   1.337
pair_coeff    2   19 thole   0.950
pair_coeff    3    3 thole   1.445
pair_coeff    3    4 thole   1.694
pair_coeff    3    9 thole   1.550
pair_coeff    3   11 thole   1.337
pair_coeff    3   12 thole   0.950
pair_coeff    3   13 thole   1.321
pair_coeff    3   14 thole   1.445
pair_coeff    3   15 thole   1.445
pair_coeff    3   16 thole   1.694
pair_coeff    3   17 thole   1.550
pair_coeff    3   18 thole   1.337
pair_coeff    3   19 thole   0.950
pair_coeff    4    4 thole   1.985
pair_coeff    4    9 thole   1.816
pair_coeff    4   11 thole   1.567
pair_coeff    4   12 thole   1.114
pair_coeff    4   13 thole   1.549
pair_coeff    4   14 thole   1.694
pair_coeff    4   15 thole   1.694
pair_coeff    4   16 thole   1.985
pair_coeff    4   17 thole   1.816
pair_coeff    4   18 thole   1.567
pair_coeff    4   19 thole   1.114
pair_coeff    9    9 thole   1.662
pair_coeff    9   11 thole   1.434
pair_coeff    9   12 thole   1.019
pair_coeff    9   13 thole   1.417
pair_coeff    9   14 thole   1.550
pair_coeff    9   15 thole   1.550
pair_coeff    9   16 thole   1.816
pair_coeff    9   17 thole   1.662
pair_coeff    9   18 thole   1.434
pair_coeff    9   19 thole   1.019
pair_coeff   11   11 thole   1.237
pair_coeff   11   12 thole   0.879
pair_coeff   11   13 thole   1.222
pair_coeff   11   14 thole   1.337
pair_coeff   11   15 thole   1.337
pair_coeff   11   16 thole   1.567
pair_coeff   11   17 thole   1.434
pair_coeff   11   18 thole   1.237
pair_coeff   11   19 thole   0.879
pair_coeff   12   12 thole   0.625
pair_coeff   12   13 thole   0.869
pair_coeff   12   14 thole   0.950
pair_coeff   12   15 thole   0.950
pair_coeff   12   16 thole   1.114
pair_coeff   12   17 thole   1.019
pair_coeff   12   18 thole   0.879
pair_coeff   12   19 thole   0.625
pair_coeff   13   13 thole   1.208
pair_coeff   13   14 thole   1.321
pair_coeff   13   15 thole   1.321
pair_coeff   13   16 thole   1.549
pair_coeff   13   17 thole   1.417
pair_coeff   13   18 thole   1.222
pair_coeff   13   19 thole   0.869
pair_coeff   14   14 thole   1.445
pair_coeff   14   15 thole   1.445
pair_coeff   14   16 thole   1.694
pair_coeff   14   17 thole   1.550
pair_coeff   14   18 thole   1.337
pair_coeff   14   19 thole   0.950
pair_coeff   15   15 thole   1.445
pair_coeff   15   16 thole   1.694
pair_coeff   15   17 thole   1.550
pair_coeff   15   18 thole   1.337
pair_coeff   15   19 thole   0.950
pair_coeff   16   16 thole   1.985
pair_coeff   16   17 thole   1.816
pair_coeff   16   18 thole   1.567
pair_coeff   16   19 thole   1.114
pair_coeff   17   17 thole   1.662
pair_coeff   17   18 thole   1.434
pair_coeff   17   19 thole   1.019
pair_coeff   18   18 thole   1.237
pair_coeff   18   19 thole   0.879
pair_coeff   19   19 thole   0.625
